CapLotSizing_PM/src/Instancias/NCLSLT/6i6p4m/NBB02.OUT
 CG ITER, OVMR, OVMRUB =           1   13372.0898438    7609.7983398
 CG ITER, OVMR, OVMRUB =           2   13372.0898438    7609.7983398
 CG ITER, OVMR, OVMRUB =           3   13372.0898438    7609.7983398
 CG ITER, OVMR, OVMRUB =           4   13372.0898438    7609.7983398
 CG ITER, OVMR, OVMRUB =           5   13372.0898438    7609.7983398
 CG ITER, OVMR, OVMRUB =           6   13372.0898438    7609.7983398
 CG ITER, OVMR, OVMRUB =           7   13372.0898438    7609.7983398
 CG ITER, OVMR, OVMRUB =           8   13372.0898438    7609.7983398
 CG ITER, OVMR, OVMRUB =           9   13372.0898438    7609.7983398
 CG ITER, OVMR, OVMRUB =          10   13372.0898438    7609.7983398
OVLB =   13372.0898438 OVLUB =    7609.7983398 TIME =       0.1200000
